40 40 40
50
1 29 20
7 21 31
19 31 15
26 15 24
28 7 11
6 4 25
27 33 30
16 12 32
15 25 3
17 30 1
12 27 13
2 4 2
10 4 6
33 34 20
1 9 6
7 30 34
21 25 30
28 35 28
18 27 19
10 17 3
32 4 11
30 18 2
15 20 32
5 22 26
29 25 35
31 21 20
35 19 15
25 34 17
18 28 28
13 17 17
8 30 22
33 33 32
24 26 8
6 3 1
25 10 30
16 13 23
15 32 30
16 2 19
27 4 14
32 31 34
14 9 7
9 28 19
12 8 19
10 26 1
16 23 9
30 25 13
2 1 14
32 33 7
16 16 21
2 32 21
